Maximize
  - 5.2861128731489 edge_0_2_0_0 - 0.42879576476 edge_0_3_0_0
   - 4.117258459795 edge_0_4_0_0 - 3.7363798717093 edge_0_5_0_0
   - 2.0187980254845 edge_0_6_0_0 - 1.8391248156282 edge_0_7_0_0
   - 2.0750287983116 edge_0_8_0_0 - 2.100709839949999 edge_0_9_0_0
   - 4.338290873728 edge_0_11_0_0 - 4.4757348044634 edge_0_14_0_0
   + 0.4681402190314527 edge_2_3_0_0 - 0.2312946094549559 edge_2_4_0_0
   - 0.5479395795818824 edge_2_5_0_0 - 0.669424722856622 edge_2_6_0_0
   - 0.8297108835188945 edge_2_7_0_0 - 0.7046670323254252 edge_2_8_0_0
   + 3.64998843751934 edge_3_2_0_0 + 3.075005594198545 edge_3_4_0_0
   + 3.083193069331087 edge_3_5_0_0 + 2.500095914515513 edge_3_6_0_0
   + 1.305760152149837 edge_3_7_0_0 + 1.555358592381682 edge_3_8_0_0
   + 1.159824048733281 edge_3_9_0_0 + 1.393010350752269 edge_3_10_0_0
   + 0.8378111935171667 edge_3_11_0_0 + 1.186153440388861 edge_3_12_0_0
   + 0.5784322348398575 edge_3_14_0_0 + 2.435869413788957 edge_3_16_0_0
   + 0.0411131827324575 edge_3_17_0_0 + 1.860423627394009 edge_3_18_0_0
   + 1.659002451483083 edge_4_2_0_0 + 1.335957374325168 edge_4_3_0_0
   + 1.290654639937 edge_4_5_0_0 + 0.3307716730056741 edge_4_6_0_0
   + 0.4692967096025368 edge_4_7_0_0 + 0.9923545418294575 edge_4_8_0_0
   + 0.3682976802947177 edge_4_9_0_0 + 1.053871267128889 edge_4_10_0_0
   + 0.3965889597588609 edge_4_11_0_0 + 1.104742099883894 edge_4_12_0_0
   + 0.3721873533680052 edge_4_14_0_0 + 1.608050451979677 edge_4_16_0_0
   + 0.1990099629096016 edge_4_17_0_0 + 0.2983770619719 edge_4_18_0_0
   + 1.3582268734698 edge_5_2_0_0 + 0.6425078072476 edge_5_3_0_0
   + 3.174358955179279 edge_5_4_0_0 + 0.45634607421612 edge_5_6_0_0
   + 1.125303232732 edge_5_7_0_0 + 1.4565673388612 edge_5_8_0_0
   + 0.7571802571358199 edge_5_9_0_0 + 1.5769139653379 edge_5_10_0_0
   + 0.76696055314564 edge_5_11_0_0 + 1.63803794991 edge_5_12_0_0
   + 0.87312848422644 edge_5_14_0_0 + 2.737373398486 edge_5_16_0_0
   + 1.2398298512204 edge_5_17_0_0 + 0.0333297 edge_5_18_0_0
   + 0.1190302644768736 edge_6_2_0_0 + 0.4917485005508521 edge_6_3_0_0
   + 0.296070988534044 edge_6_4_0_0 + 0.3512081934547017 edge_6_5_0_0
   + 0.0171493674114053 edge_6_6_0_0 + 0.1461616628129966 edge_6_7_0_0
   + 0.2936284715768674 edge_6_8_0_0 - 0.1565913859389728 edge_6_9_0_0
   - 0.244567922844321 edge_6_10_0_0 - 0.4642960046622427 edge_6_11_0_0
   - 0.3928292727365109 edge_6_12_0_0 - 0.6780516066970691 edge_6_14_0_0
   - 0.0642160420803867 edge_6_16_0_0 - 0.5864060118802702 edge_6_17_0_0
   - 0.6691819004153897 edge_6_18_0_0 + 0.2319867785364956 edge_7_2_0_0
   - 0.0810804871459895 edge_7_3_0_0 + 0.5629680346099134 edge_7_4_0_0
   + 0.6626171268576999 edge_7_5_0_0 + 0.7358510969337869 edge_7_6_0_0
   + 3.064850078170798 edge_7_8_0_0 + 2.521711674586795 edge_7_9_0_0
   + 3.077625290003805 edge_7_10_0_0 + 1.953910161343602 edge_7_11_0_0
   + 2.799975561187506 edge_7_12_0_0 + 1.818690533426878 edge_7_14_0_0
   + 3.593695107124055 edge_7_16_0_0 + 2.69547951329442 edge_7_17_0_0
   + 1.20738200974 edge_7_18_0_0 - 0.1668948891607539 edge_8_6_0_0
   - 0.0200816136715681 edge_8_7_0_0 - 0.0732071756121107 edge_8_8_0_0
   - 0.1173145392699147 edge_8_9_0_0 - 0.7981517924734909 edge_8_10_0_0
   - 0.2179245967705332 edge_8_12_0_0 - 0.574322455338421 edge_8_14_0_0
   - 0.2589145266672287 edge_9_3_0_0 - 0.0342856201319605 edge_9_4_0_0
   + 0.6448739154357701 edge_9_5_0_0 + 0.5868776366874124 edge_9_6_0_0
   + 1.038524668190278 edge_9_7_0_0 + 1.052874076963588 edge_9_8_0_0
   + 0.5065042213241481 edge_9_9_0_0 + 1.978704131410568 edge_9_10_0_0
   + 1.54188120230344 edge_9_11_0_0 + 1.968090559066672 edge_9_12_0_0
   + 0.9677995447699954 edge_9_14_0_0 + 2.468539990288754 edge_9_16_0_0
   + 1.715845249566545 edge_9_17_0_0 + 0.3315448846802252 edge_9_18_0_0
   - 0.5764790068791212 edge_10_8_0_0 - 0.1502078451016587 edge_10_9_0_0
   - 0.2043398171461822 edge_10_11_0_0 - 0.7908621220347228 edge_10_12_0_0
   - 1.1719155990343 edge_10_14_0_0 - 0.906184438192844 edge_10_16_0_0
   - 0.4505790868685535 edge_11_3_0_0 - 0.5291047874003413 edge_11_4_0_0
   + 0.39964946150416 edge_11_5_0_0 + 0.2805389402353199 edge_11_6_0_0
   + 0.5035585310560505 edge_11_7_0_0 + 0.2181030839612872 edge_11_8_0_0
   + 1.006411504191637 edge_11_9_0_0 + 1.00631845474267 edge_11_10_0_0
   + 2.111769400642852 edge_11_12_0_0 + 1.590524076091316 edge_11_14_0_0
   + 2.562754726307947 edge_11_16_0_0 + 1.872965746276884 edge_11_17_0_0
   + 0.38991168489532 edge_11_18_0_0 - 0.3171678558898658 edge_12_9_0_0
   - 0.7959209819085733 edge_12_11_0_0 - 0.2000345164663516 edge_12_14_0_0
   - 0.7984816983175167 edge_12_16_0_0 - 1.14469158598041 edge_12_17_0_0
   - 0.8931397196720436 edge_14_3_0_0 - 0.8047577237147312 edge_14_4_0_0
   + 0.056128676189292 edge_14_5_0_0 + 0.1226085049912758 edge_14_6_0_0
   - 0.1636406116561759 edge_14_7_0_0 - 0.0960208033352081 edge_14_8_0_0
   + 0.2478408721778818 edge_14_9_0_0 + 0.1481183837196472 edge_14_10_0_0
   + 0.646024603993787 edge_14_11_0_0 + 0.850433227792545 edge_14_12_0_0
   + 2.305782826291291 edge_14_16_0_0 + 1.673881506838595 edge_14_17_0_0
   + 0.69420021710382 edge_14_18_0_0 - 0.8080291545799421 edge_16_11_0_0
   - 0.2927392220146522 edge_16_12_0_0 - 0.0917174764748268 edge_16_14_0_0
   + 0.0353170617586621 edge_16_17_0_0 - 0.125623319887 edge_16_18_0_0
   - 1.463509385325853 edge_17_3_0_0 - 1.646633401932183 edge_17_5_0_0
   - 0.2994045591207486 edge_17_6_0_0 - 0.6258494553395352 edge_17_9_0_0
   - 0.5575778813370662 edge_17_10_0_0 - 0.5155646074993997 edge_17_11_0_0
   - 0.3032567341896875 edge_17_12_0_0 + 0.0649690557188204 edge_17_14_0_0
   + 0.4444242020767213 edge_17_16_0_0 + 0.7675009078998799 edge_17_18_0_0
   + 0.08420648989522 edge_18_17_0_0
Subject To
 one_parent_1: = 1
 consume_one_flow_unit_1: = 1
 one_parent_2: edge_0_2_0_0 + edge_3_2_0_0 + edge_4_2_0_0 + edge_5_2_0_0
   + edge_6_2_0_0 + edge_7_2_0_0 = 1
 consume_one_flow_unit_2: flow_0_2_0_0 - flow_2_3_0_0 - flow_2_4_0_0
   - flow_2_5_0_0 - flow_2_6_0_0 - flow_2_7_0_0 - flow_2_8_0_0
   + flow_3_2_0_0 + flow_4_2_0_0 + flow_5_2_0_0 + flow_6_2_0_0
   + flow_7_2_0_0 = 1
 one_parent_3: edge_0_3_0_0 + edge_2_3_0_0 + edge_4_3_0_0 + edge_5_3_0_0
   + edge_6_3_0_0 + edge_7_3_0_0 + edge_9_3_0_0 + edge_11_3_0_0
   + edge_14_3_0_0 + edge_17_3_0_0 = 1
 consume_one_flow_unit_3: flow_0_3_0_0 + flow_2_3_0_0 - flow_3_2_0_0
   - flow_3_4_0_0 - flow_3_5_0_0 - flow_3_6_0_0 - flow_3_7_0_0
   - flow_3_8_0_0 - flow_3_9_0_0 - flow_3_10_0_0 - flow_3_11_0_0
   - flow_3_12_0_0 - flow_3_14_0_0 - flow_3_16_0_0 - flow_3_17_0_0
   - flow_3_18_0_0 + flow_4_3_0_0 + flow_5_3_0_0 + flow_6_3_0_0
   + flow_7_3_0_0 + flow_9_3_0_0 + flow_11_3_0_0 + flow_14_3_0_0
   + flow_17_3_0_0 = 1
 one_parent_4: edge_0_4_0_0 + edge_2_4_0_0 + edge_3_4_0_0 + edge_5_4_0_0
   + edge_6_4_0_0 + edge_7_4_0_0 + edge_9_4_0_0 + edge_11_4_0_0
   + edge_14_4_0_0 = 1
 consume_one_flow_unit_4: flow_0_4_0_0 + flow_2_4_0_0 + flow_3_4_0_0
   - flow_4_2_0_0 - flow_4_3_0_0 - flow_4_5_0_0 - flow_4_6_0_0
   - flow_4_7_0_0 - flow_4_8_0_0 - flow_4_9_0_0 - flow_4_10_0_0
   - flow_4_11_0_0 - flow_4_12_0_0 - flow_4_14_0_0 - flow_4_16_0_0
   - flow_4_17_0_0 - flow_4_18_0_0 + flow_5_4_0_0 + flow_6_4_0_0
   + flow_7_4_0_0 + flow_9_4_0_0 + flow_11_4_0_0 + flow_14_4_0_0 = 1
 one_parent_5: edge_0_5_0_0 + edge_2_5_0_0 + edge_3_5_0_0 + edge_4_5_0_0
   + edge_6_5_0_0 + edge_7_5_0_0 + edge_9_5_0_0 + edge_11_5_0_0
   + edge_14_5_0_0 + edge_17_5_0_0 = 1
 consume_one_flow_unit_5: flow_0_5_0_0 + flow_2_5_0_0 + flow_3_5_0_0
   + flow_4_5_0_0 - flow_5_2_0_0 - flow_5_3_0_0 - flow_5_4_0_0
   - flow_5_6_0_0 - flow_5_7_0_0 - flow_5_8_0_0 - flow_5_9_0_0
   - flow_5_10_0_0 - flow_5_11_0_0 - flow_5_12_0_0 - flow_5_14_0_0
   - flow_5_16_0_0 - flow_5_17_0_0 - flow_5_18_0_0 + flow_6_5_0_0
   + flow_7_5_0_0 + flow_9_5_0_0 + flow_11_5_0_0 + flow_14_5_0_0
   + flow_17_5_0_0 = 1
 one_parent_6: edge_0_6_0_0 + edge_2_6_0_0 + edge_3_6_0_0 + edge_4_6_0_0
   + edge_5_6_0_0 + edge_6_6_0_0 + edge_7_6_0_0 + edge_8_6_0_0
   + edge_9_6_0_0 + edge_11_6_0_0 + edge_14_6_0_0 + edge_17_6_0_0 = 1
 consume_one_flow_unit_6: flow_0_6_0_0 + flow_2_6_0_0 + flow_3_6_0_0
   + flow_4_6_0_0 + flow_5_6_0_0 - flow_6_2_0_0 - flow_6_3_0_0
   - flow_6_4_0_0 - flow_6_5_0_0 - flow_6_7_0_0 - flow_6_8_0_0
   - flow_6_9_0_0 - flow_6_10_0_0 - flow_6_11_0_0 - flow_6_12_0_0
   - flow_6_14_0_0 - flow_6_16_0_0 - flow_6_17_0_0 - flow_6_18_0_0
   + flow_7_6_0_0 + flow_8_6_0_0 + flow_9_6_0_0 + flow_11_6_0_0
   + flow_14_6_0_0 + flow_17_6_0_0 = 1
 one_parent_7: edge_0_7_0_0 + edge_2_7_0_0 + edge_3_7_0_0 + edge_4_7_0_0
   + edge_5_7_0_0 + edge_6_7_0_0 + edge_8_7_0_0 + edge_9_7_0_0
   + edge_11_7_0_0 + edge_14_7_0_0 = 1
 consume_one_flow_unit_7: flow_0_7_0_0 + flow_2_7_0_0 + flow_3_7_0_0
   + flow_4_7_0_0 + flow_5_7_0_0 + flow_6_7_0_0 - flow_7_2_0_0
   - flow_7_3_0_0 - flow_7_4_0_0 - flow_7_5_0_0 - flow_7_6_0_0
   - flow_7_8_0_0 - flow_7_9_0_0 - flow_7_10_0_0 - flow_7_11_0_0
   - flow_7_12_0_0 - flow_7_14_0_0 - flow_7_16_0_0 - flow_7_17_0_0
   - flow_7_18_0_0 + flow_8_7_0_0 + flow_9_7_0_0 + flow_11_7_0_0
   + flow_14_7_0_0 = 1
 one_parent_8: edge_0_8_0_0 + edge_2_8_0_0 + edge_3_8_0_0 + edge_4_8_0_0
   + edge_5_8_0_0 + edge_6_8_0_0 + edge_7_8_0_0 + edge_8_8_0_0
   + edge_9_8_0_0 + edge_10_8_0_0 + edge_11_8_0_0 + edge_14_8_0_0 = 1
 consume_one_flow_unit_8: flow_0_8_0_0 + flow_2_8_0_0 + flow_3_8_0_0
   + flow_4_8_0_0 + flow_5_8_0_0 + flow_6_8_0_0 + flow_7_8_0_0
   - flow_8_6_0_0 - flow_8_7_0_0 - flow_8_9_0_0 - flow_8_10_0_0
   - flow_8_12_0_0 - flow_8_14_0_0 + flow_9_8_0_0 + flow_10_8_0_0
   + flow_11_8_0_0 + flow_14_8_0_0 = 1
 one_parent_9: edge_0_9_0_0 + edge_3_9_0_0 + edge_4_9_0_0 + edge_5_9_0_0
   + edge_6_9_0_0 + edge_7_9_0_0 + edge_8_9_0_0 + edge_9_9_0_0
   + edge_10_9_0_0 + edge_11_9_0_0 + edge_12_9_0_0 + edge_14_9_0_0
   + edge_17_9_0_0 = 1
 consume_one_flow_unit_9: flow_0_9_0_0 + flow_3_9_0_0 + flow_4_9_0_0
   + flow_5_9_0_0 + flow_6_9_0_0 + flow_7_9_0_0 + flow_8_9_0_0
   - flow_9_3_0_0 - flow_9_4_0_0 - flow_9_5_0_0 - flow_9_6_0_0
   - flow_9_7_0_0 - flow_9_8_0_0 - flow_9_10_0_0 - flow_9_11_0_0
   - flow_9_12_0_0 - flow_9_14_0_0 - flow_9_16_0_0 - flow_9_17_0_0
   - flow_9_18_0_0 + flow_10_9_0_0 + flow_11_9_0_0 + flow_12_9_0_0
   + flow_14_9_0_0 + flow_17_9_0_0 = 1
 one_parent_10: edge_3_10_0_0 + edge_4_10_0_0 + edge_5_10_0_0
   + edge_6_10_0_0 + edge_7_10_0_0 + edge_8_10_0_0 + edge_9_10_0_0
   + edge_11_10_0_0 + edge_14_10_0_0 + edge_17_10_0_0 = 1
 consume_one_flow_unit_10: flow_3_10_0_0 + flow_4_10_0_0 + flow_5_10_0_0
   + flow_6_10_0_0 + flow_7_10_0_0 + flow_8_10_0_0 + flow_9_10_0_0
   - flow_10_8_0_0 - flow_10_9_0_0 - flow_10_11_0_0 - flow_10_12_0_0
   - flow_10_14_0_0 - flow_10_16_0_0 + flow_11_10_0_0 + flow_14_10_0_0
   + flow_17_10_0_0 = 1
 one_parent_11: edge_0_11_0_0 + edge_3_11_0_0 + edge_4_11_0_0
   + edge_5_11_0_0 + edge_6_11_0_0 + edge_7_11_0_0 + edge_9_11_0_0
   + edge_10_11_0_0 + edge_12_11_0_0 + edge_14_11_0_0 + edge_16_11_0_0
   + edge_17_11_0_0 = 1
 consume_one_flow_unit_11: flow_0_11_0_0 + flow_3_11_0_0 + flow_4_11_0_0
   + flow_5_11_0_0 + flow_6_11_0_0 + flow_7_11_0_0 + flow_9_11_0_0
   + flow_10_11_0_0 - flow_11_3_0_0 - flow_11_4_0_0 - flow_11_5_0_0
   - flow_11_6_0_0 - flow_11_7_0_0 - flow_11_8_0_0 - flow_11_9_0_0
   - flow_11_10_0_0 - flow_11_12_0_0 - flow_11_14_0_0 - flow_11_16_0_0
   - flow_11_17_0_0 - flow_11_18_0_0 + flow_12_11_0_0 + flow_14_11_0_0
   + flow_16_11_0_0 + flow_17_11_0_0 = 1
 one_parent_12: edge_3_12_0_0 + edge_4_12_0_0 + edge_5_12_0_0
   + edge_6_12_0_0 + edge_7_12_0_0 + edge_8_12_0_0 + edge_9_12_0_0
   + edge_10_12_0_0 + edge_11_12_0_0 + edge_14_12_0_0 + edge_16_12_0_0
   + edge_17_12_0_0 = 1
 consume_one_flow_unit_12: flow_3_12_0_0 + flow_4_12_0_0 + flow_5_12_0_0
   + flow_6_12_0_0 + flow_7_12_0_0 + flow_8_12_0_0 + flow_9_12_0_0
   + flow_10_12_0_0 + flow_11_12_0_0 - flow_12_9_0_0 - flow_12_11_0_0
   - flow_12_14_0_0 - flow_12_16_0_0 - flow_12_17_0_0 + flow_14_12_0_0
   + flow_16_12_0_0 + flow_17_12_0_0 = 1
 one_parent_13: = 1
 consume_one_flow_unit_13: = 1
 one_parent_14: edge_0_14_0_0 + edge_3_14_0_0 + edge_4_14_0_0
   + edge_5_14_0_0 + edge_6_14_0_0 + edge_7_14_0_0 + edge_8_14_0_0
   + edge_9_14_0_0 + edge_10_14_0_0 + edge_11_14_0_0 + edge_12_14_0_0
   + edge_16_14_0_0 + edge_17_14_0_0 = 1
 consume_one_flow_unit_14: flow_0_14_0_0 + flow_3_14_0_0 + flow_4_14_0_0
   + flow_5_14_0_0 + flow_6_14_0_0 + flow_7_14_0_0 + flow_8_14_0_0
   + flow_9_14_0_0 + flow_10_14_0_0 + flow_11_14_0_0 + flow_12_14_0_0
   - flow_14_3_0_0 - flow_14_4_0_0 - flow_14_5_0_0 - flow_14_6_0_0
   - flow_14_7_0_0 - flow_14_8_0_0 - flow_14_9_0_0 - flow_14_10_0_0
   - flow_14_11_0_0 - flow_14_12_0_0 - flow_14_16_0_0 - flow_14_17_0_0
   - flow_14_18_0_0 + flow_16_14_0_0 + flow_17_14_0_0 = 1
 one_parent_15: = 1
 consume_one_flow_unit_15: = 1
 one_parent_16: edge_3_16_0_0 + edge_4_16_0_0 + edge_5_16_0_0
   + edge_6_16_0_0 + edge_7_16_0_0 + edge_9_16_0_0 + edge_10_16_0_0
   + edge_11_16_0_0 + edge_12_16_0_0 + edge_14_16_0_0 + edge_17_16_0_0 = 1
 consume_one_flow_unit_16: flow_3_16_0_0 + flow_4_16_0_0 + flow_5_16_0_0
   + flow_6_16_0_0 + flow_7_16_0_0 + flow_9_16_0_0 + flow_10_16_0_0
   + flow_11_16_0_0 + flow_12_16_0_0 + flow_14_16_0_0 - flow_16_11_0_0
   - flow_16_12_0_0 - flow_16_14_0_0 - flow_16_17_0_0 - flow_16_18_0_0
   + flow_17_16_0_0 = 1
 one_parent_17: edge_3_17_0_0 + edge_4_17_0_0 + edge_5_17_0_0
   + edge_6_17_0_0 + edge_7_17_0_0 + edge_9_17_0_0 + edge_11_17_0_0
   + edge_12_17_0_0 + edge_14_17_0_0 + edge_16_17_0_0 + edge_18_17_0_0 = 1
 consume_one_flow_unit_17: flow_3_17_0_0 + flow_4_17_0_0 + flow_5_17_0_0
   + flow_6_17_0_0 + flow_7_17_0_0 + flow_9_17_0_0 + flow_11_17_0_0
   + flow_12_17_0_0 + flow_14_17_0_0 + flow_16_17_0_0 - flow_17_3_0_0
   - flow_17_5_0_0 - flow_17_6_0_0 - flow_17_9_0_0 - flow_17_10_0_0
   - flow_17_11_0_0 - flow_17_12_0_0 - flow_17_14_0_0 - flow_17_16_0_0
   - flow_17_18_0_0 + flow_18_17_0_0 = 1
 one_parent_18: edge_3_18_0_0 + edge_4_18_0_0 + edge_5_18_0_0
   + edge_6_18_0_0 + edge_7_18_0_0 + edge_9_18_0_0 + edge_11_18_0_0
   + edge_14_18_0_0 + edge_16_18_0_0 + edge_17_18_0_0 = 1
 consume_one_flow_unit_18: flow_3_18_0_0 + flow_4_18_0_0 + flow_5_18_0_0
   + flow_6_18_0_0 + flow_7_18_0_0 + flow_9_18_0_0 + flow_11_18_0_0
   + flow_14_18_0_0 + flow_16_18_0_0 + flow_17_18_0_0 - flow_18_17_0_0 = 1
 root_flow: flow_0_2_0_0 + flow_0_3_0_0 + flow_0_4_0_0 + flow_0_5_0_0
   + flow_0_6_0_0 + flow_0_7_0_0 + flow_0_8_0_0 + flow_0_9_0_0
   + flow_0_11_0_0 + flow_0_14_0_0 = 18
 inactive_no_flow_0_2_0_0: flow_0_2_0_0 - 1000 edge_0_2_0_0 <= 0
 inactive_no_flow_0_3_0_0: flow_0_3_0_0 - 1000 edge_0_3_0_0 <= 0
 inactive_no_flow_0_4_0_0: flow_0_4_0_0 - 1000 edge_0_4_0_0 <= 0
 inactive_no_flow_0_5_0_0: flow_0_5_0_0 - 1000 edge_0_5_0_0 <= 0
 inactive_no_flow_0_6_0_0: flow_0_6_0_0 - 1000 edge_0_6_0_0 <= 0
 inactive_no_flow_0_7_0_0: flow_0_7_0_0 - 1000 edge_0_7_0_0 <= 0
 inactive_no_flow_0_8_0_0: flow_0_8_0_0 - 1000 edge_0_8_0_0 <= 0
 inactive_no_flow_0_9_0_0: flow_0_9_0_0 - 1000 edge_0_9_0_0 <= 0
 inactive_no_flow_0_11_0_0: flow_0_11_0_0 - 1000 edge_0_11_0_0 <= 0
 inactive_no_flow_0_14_0_0: flow_0_14_0_0 - 1000 edge_0_14_0_0 <= 0
 inactive_no_flow_2_3_0_0: flow_2_3_0_0 - 1000 edge_2_3_0_0 <= 0
 inactive_no_flow_2_4_0_0: flow_2_4_0_0 - 1000 edge_2_4_0_0 <= 0
 inactive_no_flow_2_5_0_0: flow_2_5_0_0 - 1000 edge_2_5_0_0 <= 0
 inactive_no_flow_2_6_0_0: flow_2_6_0_0 - 1000 edge_2_6_0_0 <= 0
 inactive_no_flow_2_7_0_0: flow_2_7_0_0 - 1000 edge_2_7_0_0 <= 0
 inactive_no_flow_2_8_0_0: flow_2_8_0_0 - 1000 edge_2_8_0_0 <= 0
 inactive_no_flow_3_2_0_0: flow_3_2_0_0 - 1000 edge_3_2_0_0 <= 0
 inactive_no_flow_3_4_0_0: flow_3_4_0_0 - 1000 edge_3_4_0_0 <= 0
 inactive_no_flow_3_5_0_0: flow_3_5_0_0 - 1000 edge_3_5_0_0 <= 0
 inactive_no_flow_3_6_0_0: flow_3_6_0_0 - 1000 edge_3_6_0_0 <= 0
 inactive_no_flow_3_7_0_0: flow_3_7_0_0 - 1000 edge_3_7_0_0 <= 0
 inactive_no_flow_3_8_0_0: flow_3_8_0_0 - 1000 edge_3_8_0_0 <= 0
 inactive_no_flow_3_9_0_0: flow_3_9_0_0 - 1000 edge_3_9_0_0 <= 0
 inactive_no_flow_3_10_0_0: flow_3_10_0_0 - 1000 edge_3_10_0_0 <= 0
 inactive_no_flow_3_11_0_0: flow_3_11_0_0 - 1000 edge_3_11_0_0 <= 0
 inactive_no_flow_3_12_0_0: flow_3_12_0_0 - 1000 edge_3_12_0_0 <= 0
 inactive_no_flow_3_14_0_0: flow_3_14_0_0 - 1000 edge_3_14_0_0 <= 0
 inactive_no_flow_3_16_0_0: flow_3_16_0_0 - 1000 edge_3_16_0_0 <= 0
 inactive_no_flow_3_17_0_0: flow_3_17_0_0 - 1000 edge_3_17_0_0 <= 0
 inactive_no_flow_3_18_0_0: flow_3_18_0_0 - 1000 edge_3_18_0_0 <= 0
 inactive_no_flow_4_2_0_0: flow_4_2_0_0 - 1000 edge_4_2_0_0 <= 0
 inactive_no_flow_4_3_0_0: flow_4_3_0_0 - 1000 edge_4_3_0_0 <= 0
 inactive_no_flow_4_5_0_0: flow_4_5_0_0 - 1000 edge_4_5_0_0 <= 0
 inactive_no_flow_4_6_0_0: flow_4_6_0_0 - 1000 edge_4_6_0_0 <= 0
 inactive_no_flow_4_7_0_0: flow_4_7_0_0 - 1000 edge_4_7_0_0 <= 0
 inactive_no_flow_4_8_0_0: flow_4_8_0_0 - 1000 edge_4_8_0_0 <= 0
 inactive_no_flow_4_9_0_0: flow_4_9_0_0 - 1000 edge_4_9_0_0 <= 0
 inactive_no_flow_4_10_0_0: flow_4_10_0_0 - 1000 edge_4_10_0_0 <= 0
 inactive_no_flow_4_11_0_0: flow_4_11_0_0 - 1000 edge_4_11_0_0 <= 0
 inactive_no_flow_4_12_0_0: flow_4_12_0_0 - 1000 edge_4_12_0_0 <= 0
 inactive_no_flow_4_14_0_0: flow_4_14_0_0 - 1000 edge_4_14_0_0 <= 0
 inactive_no_flow_4_16_0_0: flow_4_16_0_0 - 1000 edge_4_16_0_0 <= 0
 inactive_no_flow_4_17_0_0: flow_4_17_0_0 - 1000 edge_4_17_0_0 <= 0
 inactive_no_flow_4_18_0_0: flow_4_18_0_0 - 1000 edge_4_18_0_0 <= 0
 inactive_no_flow_5_2_0_0: flow_5_2_0_0 - 1000 edge_5_2_0_0 <= 0
 inactive_no_flow_5_3_0_0: flow_5_3_0_0 - 1000 edge_5_3_0_0 <= 0
 inactive_no_flow_5_4_0_0: flow_5_4_0_0 - 1000 edge_5_4_0_0 <= 0
 inactive_no_flow_5_6_0_0: flow_5_6_0_0 - 1000 edge_5_6_0_0 <= 0
 inactive_no_flow_5_7_0_0: flow_5_7_0_0 - 1000 edge_5_7_0_0 <= 0
 inactive_no_flow_5_8_0_0: flow_5_8_0_0 - 1000 edge_5_8_0_0 <= 0
 inactive_no_flow_5_9_0_0: flow_5_9_0_0 - 1000 edge_5_9_0_0 <= 0
 inactive_no_flow_5_10_0_0: flow_5_10_0_0 - 1000 edge_5_10_0_0 <= 0
 inactive_no_flow_5_11_0_0: flow_5_11_0_0 - 1000 edge_5_11_0_0 <= 0
 inactive_no_flow_5_12_0_0: flow_5_12_0_0 - 1000 edge_5_12_0_0 <= 0
 inactive_no_flow_5_14_0_0: flow_5_14_0_0 - 1000 edge_5_14_0_0 <= 0
 inactive_no_flow_5_16_0_0: flow_5_16_0_0 - 1000 edge_5_16_0_0 <= 0
 inactive_no_flow_5_17_0_0: flow_5_17_0_0 - 1000 edge_5_17_0_0 <= 0
 inactive_no_flow_5_18_0_0: flow_5_18_0_0 - 1000 edge_5_18_0_0 <= 0
 inactive_no_flow_6_2_0_0: flow_6_2_0_0 - 1000 edge_6_2_0_0 <= 0
 inactive_no_flow_6_3_0_0: flow_6_3_0_0 - 1000 edge_6_3_0_0 <= 0
 inactive_no_flow_6_4_0_0: flow_6_4_0_0 - 1000 edge_6_4_0_0 <= 0
 inactive_no_flow_6_5_0_0: flow_6_5_0_0 - 1000 edge_6_5_0_0 <= 0
 inactive_no_flow_6_6_0_0: flow_6_6_0_0 - 1000 edge_6_6_0_0 <= 0
 inactive_no_flow_6_7_0_0: flow_6_7_0_0 - 1000 edge_6_7_0_0 <= 0
 inactive_no_flow_6_8_0_0: flow_6_8_0_0 - 1000 edge_6_8_0_0 <= 0
 inactive_no_flow_6_9_0_0: flow_6_9_0_0 - 1000 edge_6_9_0_0 <= 0
 inactive_no_flow_6_10_0_0: flow_6_10_0_0 - 1000 edge_6_10_0_0 <= 0
 inactive_no_flow_6_11_0_0: flow_6_11_0_0 - 1000 edge_6_11_0_0 <= 0
 inactive_no_flow_6_12_0_0: flow_6_12_0_0 - 1000 edge_6_12_0_0 <= 0
 inactive_no_flow_6_14_0_0: flow_6_14_0_0 - 1000 edge_6_14_0_0 <= 0
 inactive_no_flow_6_16_0_0: flow_6_16_0_0 - 1000 edge_6_16_0_0 <= 0
 inactive_no_flow_6_17_0_0: flow_6_17_0_0 - 1000 edge_6_17_0_0 <= 0
 inactive_no_flow_6_18_0_0: flow_6_18_0_0 - 1000 edge_6_18_0_0 <= 0
 inactive_no_flow_7_2_0_0: flow_7_2_0_0 - 1000 edge_7_2_0_0 <= 0
 inactive_no_flow_7_3_0_0: flow_7_3_0_0 - 1000 edge_7_3_0_0 <= 0
 inactive_no_flow_7_4_0_0: flow_7_4_0_0 - 1000 edge_7_4_0_0 <= 0
 inactive_no_flow_7_5_0_0: flow_7_5_0_0 - 1000 edge_7_5_0_0 <= 0
 inactive_no_flow_7_6_0_0: flow_7_6_0_0 - 1000 edge_7_6_0_0 <= 0
 inactive_no_flow_7_8_0_0: flow_7_8_0_0 - 1000 edge_7_8_0_0 <= 0
 inactive_no_flow_7_9_0_0: flow_7_9_0_0 - 1000 edge_7_9_0_0 <= 0
 inactive_no_flow_7_10_0_0: flow_7_10_0_0 - 1000 edge_7_10_0_0 <= 0
 inactive_no_flow_7_11_0_0: flow_7_11_0_0 - 1000 edge_7_11_0_0 <= 0
 inactive_no_flow_7_12_0_0: flow_7_12_0_0 - 1000 edge_7_12_0_0 <= 0
 inactive_no_flow_7_14_0_0: flow_7_14_0_0 - 1000 edge_7_14_0_0 <= 0
 inactive_no_flow_7_16_0_0: flow_7_16_0_0 - 1000 edge_7_16_0_0 <= 0
 inactive_no_flow_7_17_0_0: flow_7_17_0_0 - 1000 edge_7_17_0_0 <= 0
 inactive_no_flow_7_18_0_0: flow_7_18_0_0 - 1000 edge_7_18_0_0 <= 0
 inactive_no_flow_8_6_0_0: flow_8_6_0_0 - 1000 edge_8_6_0_0 <= 0
 inactive_no_flow_8_7_0_0: flow_8_7_0_0 - 1000 edge_8_7_0_0 <= 0
 inactive_no_flow_8_8_0_0: flow_8_8_0_0 - 1000 edge_8_8_0_0 <= 0
 inactive_no_flow_8_9_0_0: flow_8_9_0_0 - 1000 edge_8_9_0_0 <= 0
 inactive_no_flow_8_10_0_0: flow_8_10_0_0 - 1000 edge_8_10_0_0 <= 0
 inactive_no_flow_8_12_0_0: flow_8_12_0_0 - 1000 edge_8_12_0_0 <= 0
 inactive_no_flow_8_14_0_0: flow_8_14_0_0 - 1000 edge_8_14_0_0 <= 0
 inactive_no_flow_9_3_0_0: flow_9_3_0_0 - 1000 edge_9_3_0_0 <= 0
 inactive_no_flow_9_4_0_0: flow_9_4_0_0 - 1000 edge_9_4_0_0 <= 0
 inactive_no_flow_9_5_0_0: flow_9_5_0_0 - 1000 edge_9_5_0_0 <= 0
 inactive_no_flow_9_6_0_0: flow_9_6_0_0 - 1000 edge_9_6_0_0 <= 0
 inactive_no_flow_9_7_0_0: flow_9_7_0_0 - 1000 edge_9_7_0_0 <= 0
 inactive_no_flow_9_8_0_0: flow_9_8_0_0 - 1000 edge_9_8_0_0 <= 0
 inactive_no_flow_9_9_0_0: flow_9_9_0_0 - 1000 edge_9_9_0_0 <= 0
 inactive_no_flow_9_10_0_0: flow_9_10_0_0 - 1000 edge_9_10_0_0 <= 0
 inactive_no_flow_9_11_0_0: flow_9_11_0_0 - 1000 edge_9_11_0_0 <= 0
 inactive_no_flow_9_12_0_0: flow_9_12_0_0 - 1000 edge_9_12_0_0 <= 0
 inactive_no_flow_9_14_0_0: flow_9_14_0_0 - 1000 edge_9_14_0_0 <= 0
 inactive_no_flow_9_16_0_0: flow_9_16_0_0 - 1000 edge_9_16_0_0 <= 0
 inactive_no_flow_9_17_0_0: flow_9_17_0_0 - 1000 edge_9_17_0_0 <= 0
 inactive_no_flow_9_18_0_0: flow_9_18_0_0 - 1000 edge_9_18_0_0 <= 0
 inactive_no_flow_10_8_0_0: flow_10_8_0_0 - 1000 edge_10_8_0_0 <= 0
 inactive_no_flow_10_9_0_0: flow_10_9_0_0 - 1000 edge_10_9_0_0 <= 0
 inactive_no_flow_10_11_0_0: flow_10_11_0_0 - 1000 edge_10_11_0_0 <= 0
 inactive_no_flow_10_12_0_0: flow_10_12_0_0 - 1000 edge_10_12_0_0 <= 0
 inactive_no_flow_10_14_0_0: flow_10_14_0_0 - 1000 edge_10_14_0_0 <= 0
 inactive_no_flow_10_16_0_0: flow_10_16_0_0 - 1000 edge_10_16_0_0 <= 0
 inactive_no_flow_11_3_0_0: flow_11_3_0_0 - 1000 edge_11_3_0_0 <= 0
 inactive_no_flow_11_4_0_0: flow_11_4_0_0 - 1000 edge_11_4_0_0 <= 0
 inactive_no_flow_11_5_0_0: flow_11_5_0_0 - 1000 edge_11_5_0_0 <= 0
 inactive_no_flow_11_6_0_0: flow_11_6_0_0 - 1000 edge_11_6_0_0 <= 0
 inactive_no_flow_11_7_0_0: flow_11_7_0_0 - 1000 edge_11_7_0_0 <= 0
 inactive_no_flow_11_8_0_0: flow_11_8_0_0 - 1000 edge_11_8_0_0 <= 0
 inactive_no_flow_11_9_0_0: flow_11_9_0_0 - 1000 edge_11_9_0_0 <= 0
 inactive_no_flow_11_10_0_0: flow_11_10_0_0 - 1000 edge_11_10_0_0 <= 0
 inactive_no_flow_11_12_0_0: flow_11_12_0_0 - 1000 edge_11_12_0_0 <= 0
 inactive_no_flow_11_14_0_0: flow_11_14_0_0 - 1000 edge_11_14_0_0 <= 0
 inactive_no_flow_11_16_0_0: flow_11_16_0_0 - 1000 edge_11_16_0_0 <= 0
 inactive_no_flow_11_17_0_0: flow_11_17_0_0 - 1000 edge_11_17_0_0 <= 0
 inactive_no_flow_11_18_0_0: flow_11_18_0_0 - 1000 edge_11_18_0_0 <= 0
 inactive_no_flow_12_9_0_0: flow_12_9_0_0 - 1000 edge_12_9_0_0 <= 0
 inactive_no_flow_12_11_0_0: flow_12_11_0_0 - 1000 edge_12_11_0_0 <= 0
 inactive_no_flow_12_14_0_0: flow_12_14_0_0 - 1000 edge_12_14_0_0 <= 0
 inactive_no_flow_12_16_0_0: flow_12_16_0_0 - 1000 edge_12_16_0_0 <= 0
 inactive_no_flow_12_17_0_0: flow_12_17_0_0 - 1000 edge_12_17_0_0 <= 0
 inactive_no_flow_14_3_0_0: flow_14_3_0_0 - 1000 edge_14_3_0_0 <= 0
 inactive_no_flow_14_4_0_0: flow_14_4_0_0 - 1000 edge_14_4_0_0 <= 0
 inactive_no_flow_14_5_0_0: flow_14_5_0_0 - 1000 edge_14_5_0_0 <= 0
 inactive_no_flow_14_6_0_0: flow_14_6_0_0 - 1000 edge_14_6_0_0 <= 0
 inactive_no_flow_14_7_0_0: flow_14_7_0_0 - 1000 edge_14_7_0_0 <= 0
 inactive_no_flow_14_8_0_0: flow_14_8_0_0 - 1000 edge_14_8_0_0 <= 0
 inactive_no_flow_14_9_0_0: flow_14_9_0_0 - 1000 edge_14_9_0_0 <= 0
 inactive_no_flow_14_10_0_0: flow_14_10_0_0 - 1000 edge_14_10_0_0 <= 0
 inactive_no_flow_14_11_0_0: flow_14_11_0_0 - 1000 edge_14_11_0_0 <= 0
 inactive_no_flow_14_12_0_0: flow_14_12_0_0 - 1000 edge_14_12_0_0 <= 0
 inactive_no_flow_14_16_0_0: flow_14_16_0_0 - 1000 edge_14_16_0_0 <= 0
 inactive_no_flow_14_17_0_0: flow_14_17_0_0 - 1000 edge_14_17_0_0 <= 0
 inactive_no_flow_14_18_0_0: flow_14_18_0_0 - 1000 edge_14_18_0_0 <= 0
 inactive_no_flow_16_11_0_0: flow_16_11_0_0 - 1000 edge_16_11_0_0 <= 0
 inactive_no_flow_16_12_0_0: flow_16_12_0_0 - 1000 edge_16_12_0_0 <= 0
 inactive_no_flow_16_14_0_0: flow_16_14_0_0 - 1000 edge_16_14_0_0 <= 0
 inactive_no_flow_16_17_0_0: flow_16_17_0_0 - 1000 edge_16_17_0_0 <= 0
 inactive_no_flow_16_18_0_0: flow_16_18_0_0 - 1000 edge_16_18_0_0 <= 0
 inactive_no_flow_17_3_0_0: flow_17_3_0_0 - 1000 edge_17_3_0_0 <= 0
 inactive_no_flow_17_5_0_0: flow_17_5_0_0 - 1000 edge_17_5_0_0 <= 0
 inactive_no_flow_17_6_0_0: flow_17_6_0_0 - 1000 edge_17_6_0_0 <= 0
 inactive_no_flow_17_9_0_0: flow_17_9_0_0 - 1000 edge_17_9_0_0 <= 0
 inactive_no_flow_17_10_0_0: flow_17_10_0_0 - 1000 edge_17_10_0_0 <= 0
 inactive_no_flow_17_11_0_0: flow_17_11_0_0 - 1000 edge_17_11_0_0 <= 0
 inactive_no_flow_17_12_0_0: flow_17_12_0_0 - 1000 edge_17_12_0_0 <= 0
 inactive_no_flow_17_14_0_0: flow_17_14_0_0 - 1000 edge_17_14_0_0 <= 0
 inactive_no_flow_17_16_0_0: flow_17_16_0_0 - 1000 edge_17_16_0_0 <= 0
 inactive_no_flow_17_18_0_0: flow_17_18_0_0 - 1000 edge_17_18_0_0 <= 0
 inactive_no_flow_18_17_0_0: flow_18_17_0_0 - 1000 edge_18_17_0_0 <= 0
Bounds
Binaries
 edge_0_2_0_0 edge_0_3_0_0 edge_0_4_0_0 edge_0_5_0_0 edge_0_6_0_0
 edge_0_7_0_0 edge_0_8_0_0 edge_0_9_0_0 edge_0_11_0_0 edge_0_14_0_0
 edge_2_3_0_0 edge_2_4_0_0 edge_2_5_0_0 edge_2_6_0_0 edge_2_7_0_0
 edge_2_8_0_0 edge_3_2_0_0 edge_3_4_0_0 edge_3_5_0_0 edge_3_6_0_0
 edge_3_7_0_0 edge_3_8_0_0 edge_3_9_0_0 edge_3_10_0_0 edge_3_11_0_0
 edge_3_12_0_0 edge_3_14_0_0 edge_3_16_0_0 edge_3_17_0_0 edge_3_18_0_0
 edge_4_2_0_0 edge_4_3_0_0 edge_4_5_0_0 edge_4_6_0_0 edge_4_7_0_0
 edge_4_8_0_0 edge_4_9_0_0 edge_4_10_0_0 edge_4_11_0_0 edge_4_12_0_0
 edge_4_14_0_0 edge_4_16_0_0 edge_4_17_0_0 edge_4_18_0_0 edge_5_2_0_0
 edge_5_3_0_0 edge_5_4_0_0 edge_5_6_0_0 edge_5_7_0_0 edge_5_8_0_0
 edge_5_9_0_0 edge_5_10_0_0 edge_5_11_0_0 edge_5_12_0_0 edge_5_14_0_0
 edge_5_16_0_0 edge_5_17_0_0 edge_5_18_0_0 edge_6_2_0_0 edge_6_3_0_0
 edge_6_4_0_0 edge_6_5_0_0 edge_6_6_0_0 edge_6_7_0_0 edge_6_8_0_0
 edge_6_9_0_0 edge_6_10_0_0 edge_6_11_0_0 edge_6_12_0_0 edge_6_14_0_0
 edge_6_16_0_0 edge_6_17_0_0 edge_6_18_0_0 edge_7_2_0_0 edge_7_3_0_0
 edge_7_4_0_0 edge_7_5_0_0 edge_7_6_0_0 edge_7_8_0_0 edge_7_9_0_0
 edge_7_10_0_0 edge_7_11_0_0 edge_7_12_0_0 edge_7_14_0_0 edge_7_16_0_0
 edge_7_17_0_0 edge_7_18_0_0 edge_8_6_0_0 edge_8_7_0_0 edge_8_8_0_0
 edge_8_9_0_0 edge_8_10_0_0 edge_8_12_0_0 edge_8_14_0_0 edge_9_3_0_0
 edge_9_4_0_0 edge_9_5_0_0 edge_9_6_0_0 edge_9_7_0_0 edge_9_8_0_0
 edge_9_9_0_0 edge_9_10_0_0 edge_9_11_0_0 edge_9_12_0_0 edge_9_14_0_0
 edge_9_16_0_0 edge_9_17_0_0 edge_9_18_0_0 edge_10_8_0_0 edge_10_9_0_0
 edge_10_11_0_0 edge_10_12_0_0 edge_10_14_0_0 edge_10_16_0_0 edge_11_3_0_0
 edge_11_4_0_0 edge_11_5_0_0 edge_11_6_0_0 edge_11_7_0_0 edge_11_8_0_0
 edge_11_9_0_0 edge_11_10_0_0 edge_11_12_0_0 edge_11_14_0_0 edge_11_16_0_0
 edge_11_17_0_0 edge_11_18_0_0 edge_12_9_0_0 edge_12_11_0_0 edge_12_14_0_0
 edge_12_16_0_0 edge_12_17_0_0 edge_14_3_0_0 edge_14_4_0_0 edge_14_5_0_0
 edge_14_6_0_0 edge_14_7_0_0 edge_14_8_0_0 edge_14_9_0_0 edge_14_10_0_0
 edge_14_11_0_0 edge_14_12_0_0 edge_14_16_0_0 edge_14_17_0_0 edge_14_18_0_0
 edge_16_11_0_0 edge_16_12_0_0 edge_16_14_0_0 edge_16_17_0_0 edge_16_18_0_0
 edge_17_3_0_0 edge_17_5_0_0 edge_17_6_0_0 edge_17_9_0_0 edge_17_10_0_0
 edge_17_11_0_0 edge_17_12_0_0 edge_17_14_0_0 edge_17_16_0_0 edge_17_18_0_0
 edge_18_17_0_0
End
